(set-option :produce-models true)
(set-logic QF_UF)
(declare-fun p27() Bool)
(declare-fun p14() Bool)
(declare-fun p2() Bool)
(declare-fun p28() Bool)
(declare-fun p15() Bool)
(declare-fun p18() Bool)
(declare-fun p11() Bool)
(declare-fun p7() Bool)
(declare-fun p13() Bool)
(declare-fun p0() Bool)
(declare-fun p25() Bool)
(declare-fun p1() Bool)
(declare-fun p23() Bool)
(declare-fun p6() Bool)
(declare-fun p29() Bool)
(declare-fun p10() Bool)
(declare-fun p17() Bool)
(declare-fun p5() Bool)
(declare-fun p19() Bool)
(declare-fun p3() Bool)
(declare-fun p20() Bool)
(declare-fun p8() Bool)
(declare-fun p16() Bool)
(declare-fun p12() Bool)
(declare-fun p24() Bool)
(declare-fun p9() Bool)
(declare-fun p26() Bool)
(declare-fun p4() Bool)
(declare-fun p21() Bool)
(declare-fun p22() Bool)
(assert
(and (or p27 p14 p2) (or p28 p15 (not p18)) (or p15 (not p11) p7) (or (not p13) p0 p15) (or (not p25) (not p18) p1) (or (not p23) p6 p29) (or (not p10) (not p17) (not p5)) (or p19 p29 (not p27)) (or p6 (not p3) p23) (or (not p20) (not p10) (not p25)) (or p23 p8 (not p19)) (or p7 (not p16) p13) (or p7 p12 p20) (or (not p29) (not p3) (not p20)) (or (not p20) p15 (not p20)) (or p3 p25 p24) (or (not p9) p26 (not p2)) (or (not p24) p12 (not p26)) (or (not p25) (not p15) (not p6)) (or (not p13) (not p0) (not p4)) (or (not p6) p5 p25) (or p1 p19 (not p23)) (or (not p14) p13 p26) (or p21 p16 (not p21)) (or (not p6) (not p27) p19) (or p5 (not p0) p4) (or p22 p28 p14) (or (not p27) (not p12) (not p8)) (or p17 (not p9) p24) (or (not p14) p15 (not p1)) (or (not p1) p0 (not p14)) (or (not p25) (not p10) p0) (or p4 (not p16) p14) (or p0 p2 (not p29)) (or p18 (not p0) (not p12)) (or p16 (not p4) (not p11)) (or (not p1) (not p19) p14) (or p1 p20 (not p3)) (or (not p20) p0 (not p4)) (or (not p17) p9 (not p4)) (or (not p6) (not p23) (not p5)) (or p21 (not p28) (not p3)) (or p24 (not p21) p20) (or p17 p27 (not p7)) (or p11 p7 p1) (or (not p11) (not p8) (not p13)) (or (not p5) (not p2) (not p25)) (or (not p10) p12 (not p26)) (or p1 (not p26) (not p29)) (or p1 (not p28) p27) (or p14 (not p0) (not p17)) (or p18 (not p14) (not p0)) (or (not p9) (not p17) p14) (or p24 (not p14) (not p27)) (or p14 p7 (not p29)) (or p8 (not p19) p0) (or p29 p22 p16) (or (not p26) (not p6) p10) (or (not p24) p2 (not p1)) (or p2 p5 (not p21)) (or p5 (not p0) p3) (or p23 (not p23) p3) (or p19 (not p3) p6) (or (not p4) (not p10) p26) (or p11 p22 (not p14)) (or (not p2) (not p12) p7) (or p7 p27 p19) (or p20 p6 p28) (or (not p11) p2 (not p4)) (or (not p19) (not p0) (not p5)) (or (not p15) (not p4) (not p22)) (or (not p22) (not p28) (not p13)) (or p6 p12 p11) (or (not p14) p11 p19) (or (not p9) (not p19) p6) (or p19 (not p15) p21) (or p2 p4 p17) (or (not p20) p24 (not p10)) (or (not p11) p21 (not p19)) (or (not p25) (not p21) p26) (or p12 p29 (not p20)) (or (not p23) p26 (not p12)) (or p19 p9 (not p28)) (or (not p6) (not p6) p26) (or p19 p11 (not p7)) (or (not p5) p3 p22) (or p22 (not p21) (not p21)) (or (not p8) p17 (not p22)) (or (not p24) p4 (not p3)) (or p4 p25 (not p0)) (or (not p28) (not p26) (not p4)) (or (not p10) (not p18) p19) (or (not p3) (not p6) p23) (or (not p21) (not p1) p23) (or p11 (not p18) p4) (or (not p15) p1 p26) (or (not p24) p6 p6) (or (not p12) p1 p6) (or (not p2) (not p19) p11) (or (not p21) (not p16) p8) (or (not p13) p13 (not p9)) (or p15 p10 p27) (or (not p8) p3 p18) (or p7 p24 p14) (or (not p23) (not p15) (not p11)) (or p9 p21 p9) (or (not p17) p13 (not p29)) (or (not p21) (not p20) p3) (or (not p19) p29 p10) (or (not p22) (not p12) p12) (or (not p0) (not p1) (not p12)) (or (not p3) (not p7) p29) (or (not p20) p28 p23) (or (not p22) (not p13) (not p10)) (or (not p14) (not p28) p10) (or p4 (not p16) (not p13)) (or p15 p5 p0) (or p9 p15 p13) (or (not p25) (not p27) (not p3)) (or (not p16) p22 (not p13)) (or p1 (not p2) p5) (or p8 p1 p26) (or p20 p1 p20) (or (not p25) p26 (not p23)) (or (not p18) p11 (not p0)) (or (not p29) p12 (not p9)) (or p17 p13 p4) (or p12 (not p23) (not p16)))
)
(check-sat)
(get-model)
